DIMENSION: 24
EDGE_WEIGHT_TYPE: EXPLICIT
EDGE_WEIGHT_FORMAT: FULL_MATRIX
EDGE_WEIGHT_SECTION:
32767 32767 30 28 32767 32767 32767 32767 37 8 32767 32767 32767 32767 32767 4 32767 11 32767 81 13 32767 48 32767 
32767 32767 77 32767 32767 39 32767 65 32767 24 32767 32767 73 32767 77 32767 32767 32767 32767 32767 60 32767 8 32767 
30 77 32767 32767 32767 32767 32767 32767 32767 65 32767 78 25 32767 50 32767 71 50 32767 32767 10 79 32767 38 
28 32767 32767 32767 32767 74 81 29 32767 32767 32767 32767 32767 42 32767 91 36 15 32767 32767 4 32767 32767 32767 
32767 32767 32767 32767 32767 32767 32767 32767 32767 32767 10 32767 38 93 32767 52 67 82 77 32767 43 32767 92 26 
32767 39 32767 74 32767 32767 42 32767 32767 32767 83 32767 32767 23 32767 32767 32767 32767 32767 42 32767 32767 32767 4 
32767 32767 32767 81 32767 42 32767 10 32767 32767 32767 4 32767 45 7 32767 32767 32767 60 48 32767 32767 32767 13 
32767 65 32767 29 32767 32767 10 32767 90 11 79 57 12 45 56 32767 53 32767 32767 32767 32767 86 32767 34 
37 32767 32767 32767 32767 32767 32767 90 32767 32767 32767 32767 32767 32767 32767 32767 32767 62 63 32767 26 32767 78 97 
8 24 65 32767 32767 32767 32767 11 32767 32767 32767 90 42 32767 79 32767 32767 32767 36 14 50 32767 32767 72 
32767 32767 32767 32767 10 83 32767 79 32767 32767 32767 61 32767 87 74 38 32767 32767 32767 32767 32767 32767 22 31 
32767 32767 78 32767 32767 32767 4 57 32767 90 61 32767 32767 32767 32767 32767 55 32767 32767 42 88 32767 32767 30 
32767 73 25 32767 38 32767 32767 12 32767 42 32767 32767 32767 32767 32767 32767 32767 30 96 32767 7 71 6 32767 
32767 32767 32767 42 93 23 45 45 32767 32767 87 32767 32767 32767 46 21 16 68 32767 55 39 66 32767 32767 
32767 77 50 32767 32767 32767 7 56 32767 79 74 32767 32767 46 32767 32767 56 4 32767 32767 32767 32767 32767 32767 
4 32767 32767 91 52 32767 32767 32767 32767 32767 38 32767 32767 21 32767 32767 32767 32767 59 74 75 32767 43 80 
32767 32767 71 36 67 32767 32767 53 32767 32767 32767 55 32767 16 56 32767 32767 82 35 32767 32767 19 32767 32767 
11 32767 50 15 82 32767 32767 32767 62 32767 32767 32767 30 68 4 32767 82 32767 32767 22 32767 83 32767 32767 
32767 32767 32767 32767 77 32767 60 32767 63 36 32767 32767 96 32767 32767 59 35 32767 32767 32767 32767 32767 32767 32767 
81 32767 32767 32767 32767 42 48 32767 32767 14 32767 42 32767 55 32767 74 32767 22 32767 32767 32767 13 32767 55 
13 60 10 4 43 32767 32767 32767 26 50 32767 88 7 39 32767 75 32767 32767 32767 32767 32767 75 32767 32767 
32767 32767 79 32767 32767 32767 32767 86 32767 32767 32767 32767 71 66 32767 32767 19 83 32767 13 75 32767 32767 88 
48 8 32767 32767 92 32767 32767 32767 78 32767 22 32767 6 32767 32767 43 32767 32767 32767 32767 32767 32767 32767 1 
32767 32767 38 32767 26 4 13 34 97 72 31 30 32767 32767 32767 80 32767 32767 32767 55 32767 88 1 32767 
EOF